
  32    4
  10   10   10   10

   0   0   0   0   0   3 2 4 6 
   9   1   1   0   1   2 10 3 
   3   3   4   0   5   3 9 8 5 
   6   3   6   0   4   2 8 5 
   8   3   4   0   9   2 31 7 
   8   0   7   2   3   2 31 7 
  10   7   4   3   0   3 19 14 11 
   6   0   6   1   4   3 31 14 11 
   3   0   4   2   2   5 31 20 19 16 12 
   3   5   0   4   6   5 23 20 19 16 12 
   1   3   0   5   2   4 23 20 16 12 
   6   7   5   5   0   1 13 
   2   2   0   3   2   3 30 27 15 
   9   5   3   0   7   4 23 22 21 17 
   1   0   4   3   2   2 29 18 
   8   5   2   0   4   1 17 
   9   3   2   0   3   5 29 28 27 26 24 
  10   6   6   3   0   3 28 22 21 
   7   7   3   0   7   3 30 27 21 
   9   0   3   3   5   1 21 
   2   3   5   0   3   2 26 24 
   5   3   0   7   3   2 26 25 
   8   5   2   2   0   2 27 25 
   1   4   0   2   3   1 25 
   8   6   5   5   0   1 32
   4   5   6   6   0   1 32
   7   3   4   0   3   1 32
   9   3   0  10   3   1 32
  10   1   0   6   4   1 32
   1   3   0   4   4   1 32
   1   0   2   4   7   1 32
   0   0   0   0   0   0 
